p cnf 22 7
a 1 0
e 2 3 4 0
a 5 6 7 0
e 8 0
a 9 0
e 10 11 12 0
a 13 0
e 14 0
a 15 0
e 16 0
a 17 18 0
e 19 0
a 20 21 0
e 22 0
16 -19 10 0
18 22 5 -8 15 0
11 -5 14 0
15 -13 19 2 11 0
-11 16 -3 -14 0
9 -8 19 22 3 0
20 -1 -11 0
